c nIsolatedPIs 48
c maxPI 16
p cnf 45 88
c gate 17 2 10 0
2 -17 0
10 -17 0
-2 -10 17 0
c gate 18 1 9 0
1 -18 0
9 -18 0
-1 -9 18 0
c gate 19 -17 -18 0
-17 -19 0
-18 -19 0
17 18 19 0
c gate 20 -3 -11 0
-3 -20 0
-11 -20 0
3 11 20 0
c gate 21 -2 -10 0
-2 -21 0
-10 -21 0
2 10 21 0
c gate 22 -20 -21 0
-20 -22 0
-21 -22 0
20 21 22 0
c gate 23 -19 22 0
-19 -23 0
22 -23 0
19 -22 23 0
c gate 24 3 11 0
3 -24 0
11 -24 0
-3 -11 24 0
c gate 25 4 12 0
4 -25 0
12 -25 0
-4 -12 25 0
c gate 26 -24 -25 0
-24 -26 0
-25 -26 0
24 25 26 0
c gate 27 -23 26 0
-23 -27 0
26 -27 0
23 -26 27 0
c gate 28 8 16 0
8 -28 0
16 -28 0
-8 -16 28 0
c gate 29 7 15 0
7 -29 0
15 -29 0
-7 -15 29 0
c gate 30 -28 -29 0
-28 -30 0
-29 -30 0
28 29 30 0
c gate 31 -8 -16 0
-8 -31 0
-16 -31 0
8 16 31 0
c gate 32 -7 -15 0
-7 -32 0
-15 -32 0
7 15 32 0
c gate 33 -31 -32 0
-31 -33 0
-32 -33 0
31 32 33 0
c gate 34 30 33 0
30 -34 0
33 -34 0
-30 -33 34 0
c gate 35 5 13 0
5 -35 0
13 -35 0
-5 -13 35 0
c gate 36 6 14 0
6 -36 0
14 -36 0
-6 -14 36 0
c gate 37 -35 -36 0
-35 -37 0
-36 -37 0
35 36 37 0
c gate 38 -5 -13 0
-5 -38 0
-13 -38 0
5 13 38 0
c gate 39 -4 -12 0
-4 -39 0
-12 -39 0
4 12 39 0
c gate 40 -6 -14 0
-6 -40 0
-14 -40 0
6 14 40 0
c gate 41 -39 -40 0
-39 -41 0
-40 -41 0
39 40 41 0
c gate 42 -38 41 0
-38 -42 0
41 -42 0
38 -41 42 0
c gate 43 37 42 0
37 -43 0
42 -43 0
-37 -42 43 0
c gate 44 34 43 0
34 -44 0
43 -44 0
-34 -43 44 0
c gate 45 -27 44 0
-27 -45 0
44 -45 0
27 -44 45 0
c PO
45 0
